53618
16, 10, 22, 29, 21, 23, 17, 48, 49, 19, 44, 38, 8, 32, 41, 13, 5, 35, 24, 50, 20, 7, 37, 51, 40, 43, 3, 6, 28, 55, 26, 53, 34, 54, 47, 30, 4, 18, 12, 9, 14, 2, 52, 25, 31, 11, 45, 42, 33, 27, 1, 36, 46, 39, 15
